p cnf 522 2012
1 -2 0
2 -1 0
3 -4 0
4 -3 0
5 -6 0
6 -5 0
7 -8 0
8 -7 0
9 -10 0
10 -9 0
11 -12 0
12 -11 0
13 -14 0
14 -13 0
15 -16 0
16 -15 0
17 -18 0
18 -17 0
19 -20 0
20 -19 0
21 -22 0
22 -21 0
23 -24 0
24 -23 0
25 -26 0
26 -25 0
27 -28 0
28 -27 0
29 -30 0
30 -29 0
31 -32 0
32 -31 0
33 -34 0
34 -33 0
35 -36 0
36 -35 0
37 -38 0
38 -37 0
39 -40 0
40 -39 0
41 -42 0
42 -41 0
43 -44 0
44 -43 0
45 -46 0
46 -45 0
47 -48 0
48 -47 0
49 -50 0
50 -49 0
51 52 0
53 52 0
54 52 0
-51 -53 -54 -52 0
-55 -56 52 0
55 -56 -52 0
56 -52 -55 0
55 52 56 0
-56 0
53 57 0
54 57 0
-53 -54 -57 0
-58 57 -59 0
58 -57 -59 0
59 -57 -58 0
58 59 57 0
-59 0
60 -54 0
54 -60 0
61 62 0
63 62 0
64 62 0
-61 -63 -64 -62 0
-65 62 -66 0
65 -62 -66 0
66 -62 -65 0
65 62 66 0
-66 0
62 -67 -68 0
67 -62 -68 0
68 -62 -67 0
67 62 68 0
-68 0
62 -69 -70 0
69 -62 -70 0
70 -62 -69 0
69 62 70 0
-70 0
71 72 0
73 72 0
74 72 0
75 72 0
-76 0
-77 72 -78 0
77 -72 -78 0
78 -72 -77 0
77 72 78 0
-78 0
73 79 0
74 79 0
75 79 0
-73 -74 -75 -79 0
79 -80 -81 0
80 -79 -81 0
81 -79 -80 0
80 79 81 0
-81 0
79 -82 -83 0
82 -79 -83 0
83 -79 -82 0
82 79 83 0
-83 0
79 -84 -85 0
84 -79 -85 0
85 -79 -84 0
84 79 85 0
-85 0
86 87 0
88 87 0
89 87 0
90 87 0
-91 0
-92 87 -93 0
92 -87 -93 0
93 -87 -92 0
92 87 93 0
-93 0
88 94 0
89 94 0
90 94 0
-88 -89 -90 -94 0
94 -95 -96 0
95 -94 -96 0
96 -94 -95 0
95 94 96 0
-96 0
89 97 0
90 97 0
-89 -90 -97 0
97 -98 -99 0
98 -97 -99 0
99 -97 -98 0
98 97 99 0
-99 0
97 -100 -101 0
100 -97 -101 0
101 -97 -100 0
100 97 101 0
-101 0
102 103 0
104 103 0
105 103 0
106 103 0
107 103 0
108 103 0
109 103 0
110 103 0
-111 0
-112 103 -113 0
112 -103 -113 0
113 -103 -112 0
112 103 113 0
-113 0
104 114 0
105 114 0
106 114 0
107 114 0
108 114 0
109 114 0
110 114 0
-115 0
114 -116 -117 0
116 -114 -117 0
117 -114 -116 0
116 114 117 0
-117 0
105 118 0
106 118 0
107 118 0
108 118 0
109 118 0
110 118 0
-119 0
118 -120 -121 0
120 -118 -121 0
121 -118 -120 0
120 118 121 0
-121 0
106 122 0
107 122 0
108 122 0
109 122 0
110 122 0
-123 0
122 -124 -125 0
124 -122 -125 0
125 -122 -124 0
124 122 125 0
-125 0
107 126 0
108 126 0
109 126 0
110 126 0
-127 0
126 -128 -129 0
128 -126 -129 0
129 -126 -128 0
128 126 129 0
-129 0
126 -130 -131 0
130 -126 -131 0
131 -126 -130 0
130 126 131 0
-131 0
126 -132 -133 0
132 -126 -133 0
133 -126 -132 0
132 126 133 0
-133 0
126 -134 -135 0
134 -126 -135 0
135 -126 -134 0
134 126 135 0
-135 0
136 137 0
138 137 0
139 137 0
140 137 0
141 137 0
142 137 0
-143 0
-144 137 -145 0
144 -137 -145 0
145 -137 -144 0
144 137 145 0
-145 0
138 146 0
139 146 0
140 146 0
141 146 0
142 146 0
-147 0
146 -148 -149 0
148 -146 -149 0
149 -146 -148 0
148 146 149 0
-149 0
139 150 0
140 150 0
141 150 0
142 150 0
-151 0
150 -152 -153 0
152 -150 -153 0
153 -150 -152 0
152 150 153 0
-153 0
150 -154 -155 0
154 -150 -155 0
155 -150 -154 0
154 150 155 0
-155 0
150 -156 -157 0
156 -150 -157 0
157 -150 -156 0
156 150 157 0
-157 0
150 -158 -159 0
158 -150 -159 0
159 -150 -158 0
158 150 159 0
-159 0
160 161 0
162 161 0
163 161 0
164 161 0
165 161 0
166 161 0
167 161 0
-168 0
-169 161 -170 0
169 -161 -170 0
170 -161 -169 0
169 161 170 0
-170 0
162 171 0
163 171 0
164 171 0
165 171 0
166 171 0
167 171 0
-172 0
171 -173 -174 0
173 -171 -174 0
174 -171 -173 0
173 171 174 0
-174 0
163 175 0
164 175 0
165 175 0
166 175 0
167 175 0
-176 0
175 -177 -178 0
177 -175 -178 0
178 -175 -177 0
177 175 178 0
-178 0
164 179 0
165 179 0
166 179 0
167 179 0
-180 0
179 -181 -182 0
181 -179 -182 0
182 -179 -181 0
181 179 182 0
-182 0
179 -183 -184 0
183 -179 -184 0
184 -179 -183 0
183 179 184 0
-184 0
179 -185 -186 0
185 -179 -186 0
186 -179 -185 0
185 179 186 0
-186 0
179 -187 -188 0
187 -179 -188 0
188 -179 -187 0
187 179 188 0
-188 0
189 190 0
191 190 0
-189 -191 -190 0
-192 190 -193 0
192 -190 -193 0
193 -190 -192 0
192 190 193 0
-193 0
194 -191 0
191 -194 0
195 196 0
197 196 0
198 196 0
199 196 0
200 196 0
201 196 0
202 196 0
-203 0
-204 196 -205 0
204 -196 -205 0
205 -196 -204 0
204 196 205 0
-205 0
197 206 0
198 206 0
199 206 0
200 206 0
201 206 0
202 206 0
-207 0
206 -208 -209 0
208 -206 -209 0
209 -206 -208 0
208 206 209 0
-209 0
198 210 0
199 210 0
200 210 0
201 210 0
202 210 0
-211 0
210 -212 -213 0
212 -210 -213 0
213 -210 -212 0
212 210 213 0
-213 0
199 214 0
200 214 0
201 214 0
202 214 0
-215 0
214 -216 -217 0
216 -214 -217 0
217 -214 -216 0
216 214 217 0
-217 0
214 -218 -219 0
218 -214 -219 0
219 -214 -218 0
218 214 219 0
-219 0
214 -220 -221 0
220 -214 -221 0
221 -214 -220 0
220 214 221 0
-221 0
214 -222 -223 0
222 -214 -223 0
223 -214 -222 0
222 214 223 0
-223 0
224 225 0
226 225 0
227 225 0
228 225 0
-229 0
-230 225 -231 0
230 -225 -231 0
231 -225 -230 0
230 225 231 0
-231 0
226 232 0
227 232 0
228 232 0
-226 -227 -228 -232 0
232 -233 -234 0
233 -232 -234 0
234 -232 -233 0
233 232 234 0
-234 0
227 235 0
228 235 0
-227 -228 -235 0
235 -236 -237 0
236 -235 -237 0
237 -235 -236 0
236 235 237 0
-237 0
238 -228 0
228 -238 0
239 -240 0
240 -239 0
241 242 0
243 242 0
244 242 0
245 242 0
246 242 0
247 242 0
-248 0
-249 242 -250 0
249 -242 -250 0
250 -242 -249 0
249 242 250 0
-250 0
243 251 0
244 251 0
245 251 0
246 251 0
247 251 0
-252 0
251 -253 -254 0
253 -251 -254 0
254 -251 -253 0
253 251 254 0
-254 0
244 255 0
245 255 0
246 255 0
247 255 0
-256 0
255 -257 -258 0
257 -255 -258 0
258 -255 -257 0
257 255 258 0
-258 0
255 -259 -260 0
259 -255 -260 0
260 -255 -259 0
259 255 260 0
-260 0
255 -261 -262 0
261 -255 -262 0
262 -255 -261 0
261 255 262 0
-262 0
255 -263 -264 0
263 -255 -264 0
264 -255 -263 0
263 255 264 0
-264 0
265 266 0
267 266 0
268 266 0
269 266 0
270 266 0
271 266 0
-272 0
-273 266 -274 0
273 -266 -274 0
274 -266 -273 0
273 266 274 0
-274 0
267 275 0
268 275 0
269 275 0
270 275 0
271 275 0
-276 0
275 -277 -278 0
277 -275 -278 0
278 -275 -277 0
277 275 278 0
-278 0
268 279 0
269 279 0
270 279 0
271 279 0
-280 0
279 -281 -282 0
281 -279 -282 0
282 -279 -281 0
281 279 282 0
-282 0
279 -283 -284 0
283 -279 -284 0
284 -279 -283 0
283 279 284 0
-284 0
279 -285 -286 0
285 -279 -286 0
286 -279 -285 0
285 279 286 0
-286 0
279 -287 -288 0
287 -279 -288 0
288 -279 -287 0
287 279 288 0
-288 0
289 290 0
291 290 0
292 290 0
293 290 0
294 290 0
-295 0
-296 290 -297 0
296 -290 -297 0
297 -290 -296 0
296 290 297 0
-297 0
291 298 0
292 298 0
293 298 0
294 298 0
-299 0
298 -300 -301 0
300 -298 -301 0
301 -298 -300 0
300 298 301 0
-301 0
292 302 0
293 302 0
294 302 0
-292 -293 -294 -302 0
302 -303 -304 0
303 -302 -304 0
304 -302 -303 0
303 302 304 0
-304 0
293 305 0
294 305 0
-293 -294 -305 0
305 -306 -307 0
306 -305 -307 0
307 -305 -306 0
306 305 307 0
-307 0
305 -308 -309 0
308 -305 -309 0
309 -305 -308 0
308 305 309 0
-309 0
310 311 0
312 311 0
313 311 0
314 311 0
315 311 0
-316 0
-317 311 -318 0
317 -311 -318 0
318 -311 -317 0
317 311 318 0
-318 0
312 319 0
313 319 0
314 319 0
315 319 0
-320 0
319 -321 -322 0
321 -319 -322 0
322 -319 -321 0
321 319 322 0
-322 0
319 -323 -324 0
323 -319 -324 0
324 -319 -323 0
323 319 324 0
-324 0
319 -325 -326 0
325 -319 -326 0
326 -319 -325 0
325 319 326 0
-326 0
319 -327 -328 0
327 -319 -328 0
328 -319 -327 0
327 319 328 0
-328 0
329 330 0
331 330 0
332 330 0
333 330 0
334 330 0
335 330 0
336 330 0
-337 0
-338 330 -339 0
338 -330 -339 0
339 -330 -338 0
338 330 339 0
-339 0
331 340 0
332 340 0
333 340 0
334 340 0
335 340 0
336 340 0
-341 0
340 -342 -343 0
342 -340 -343 0
343 -340 -342 0
342 340 343 0
-343 0
332 344 0
333 344 0
334 344 0
335 344 0
336 344 0
-345 0
344 -346 -347 0
346 -344 -347 0
347 -344 -346 0
346 344 347 0
-347 0
333 348 0
334 348 0
335 348 0
336 348 0
-349 0
348 -350 -351 0
350 -348 -351 0
351 -348 -350 0
350 348 351 0
-351 0
348 -352 -353 0
352 -348 -353 0
353 -348 -352 0
352 348 353 0
-353 0
348 -354 -355 0
354 -348 -355 0
355 -348 -354 0
354 348 355 0
-355 0
348 -356 -357 0
356 -348 -357 0
357 -348 -356 0
356 348 357 0
-357 0
358 359 0
360 359 0
361 359 0
-358 -360 -361 -359 0
-362 359 -363 0
362 -359 -363 0
363 -359 -362 0
362 359 363 0
-363 0
360 364 0
361 364 0
-360 -361 -364 0
364 -365 -366 0
365 -364 -366 0
366 -364 -365 0
365 364 366 0
-366 0
367 -361 0
361 -367 0
368 369 0
370 369 0
371 369 0
372 369 0
373 369 0
374 369 0
375 369 0
-376 0
-377 369 -378 0
377 -369 -378 0
378 -369 -377 0
377 369 378 0
-378 0
370 379 0
371 379 0
372 379 0
373 379 0
374 379 0
375 379 0
-380 0
379 -381 -382 0
381 -379 -382 0
382 -379 -381 0
381 379 382 0
-382 0
371 383 0
372 383 0
373 383 0
374 383 0
375 383 0
-384 0
383 -385 -386 0
385 -383 -386 0
386 -383 -385 0
385 383 386 0
-386 0
372 387 0
373 387 0
374 387 0
375 387 0
-388 0
387 -389 -390 0
389 -387 -390 0
390 -387 -389 0
389 387 390 0
-390 0
373 391 0
374 391 0
375 391 0
-373 -374 -375 -391 0
391 -392 -393 0
392 -391 -393 0
393 -391 -392 0
392 391 393 0
-393 0
391 -394 -395 0
394 -391 -395 0
395 -391 -394 0
394 391 395 0
-395 0
391 -396 -397 0
396 -391 -397 0
397 -391 -396 0
396 391 397 0
-397 0
398 399 0
400 399 0
401 399 0
402 399 0
403 399 0
404 399 0
-405 0
-406 399 -407 0
406 -399 -407 0
407 -399 -406 0
406 399 407 0
-407 0
400 408 0
401 408 0
402 408 0
403 408 0
404 408 0
-409 0
408 -410 -411 0
410 -408 -411 0
411 -408 -410 0
410 408 411 0
-411 0
401 412 0
402 412 0
403 412 0
404 412 0
-413 0
412 -414 -415 0
414 -412 -415 0
415 -412 -414 0
414 412 415 0
-415 0
402 416 0
403 416 0
404 416 0
-402 -403 -404 -416 0
416 -417 -418 0
417 -416 -418 0
418 -416 -417 0
417 416 418 0
-418 0
416 -419 -420 0
419 -416 -420 0
420 -416 -419 0
419 416 420 0
-420 0
416 -421 -422 0
421 -416 -422 0
422 -416 -421 0
421 416 422 0
-422 0
423 424 0
425 424 0
-423 -425 -424 0
-426 424 -427 0
426 -424 -427 0
427 -424 -426 0
426 424 427 0
-427 0
428 -425 0
425 -428 0
429 430 0
431 430 0
432 430 0
433 430 0
434 430 0
-435 0
-436 430 -437 0
436 -430 -437 0
437 -430 -436 0
436 430 437 0
-437 0
431 438 0
432 438 0
433 438 0
434 438 0
-439 0
438 -440 -441 0
440 -438 -441 0
441 -438 -440 0
440 438 441 0
-441 0
432 442 0
433 442 0
434 442 0
-432 -433 -434 -442 0
442 -443 -444 0
443 -442 -444 0
444 -442 -443 0
443 442 444 0
-444 0
433 445 0
434 445 0
-433 -434 -445 0
445 -446 -447 0
446 -445 -447 0
447 -445 -446 0
446 445 447 0
-447 0
445 -448 -449 0
448 -445 -449 0
449 -445 -448 0
448 445 449 0
-449 0
450 451 0
452 451 0
-450 -452 -451 0
-453 451 -454 0
453 -451 -454 0
454 -451 -453 0
453 451 454 0
-454 0
451 -455 -456 0
455 -451 -456 0
456 -451 -455 0
455 451 456 0
-456 0
457 458 0
459 458 0
460 458 0
461 458 0
-462 0
-463 458 -464 0
463 -458 -464 0
464 -458 -463 0
463 458 464 0
-464 0
459 465 0
460 465 0
461 465 0
-459 -460 -461 -465 0
465 -466 -467 0
466 -465 -467 0
467 -465 -466 0
466 465 467 0
-467 0
460 468 0
461 468 0
-460 -461 -468 0
468 -469 -470 0
469 -468 -470 0
470 -468 -469 0
469 468 470 0
-470 0
468 -471 -472 0
471 -468 -472 0
472 -468 -471 0
471 468 472 0
-472 0
473 474 0
475 474 0
476 474 0
477 474 0
478 474 0
479 474 0
480 474 0
-481 0
-482 474 -483 0
482 -474 -483 0
483 -474 -482 0
482 474 483 0
-483 0
475 484 0
476 484 0
477 484 0
478 484 0
479 484 0
480 484 0
-485 0
484 -486 -487 0
486 -484 -487 0
487 -484 -486 0
486 484 487 0
-487 0
476 488 0
477 488 0
478 488 0
479 488 0
480 488 0
-489 0
488 -490 -491 0
490 -488 -491 0
491 -488 -490 0
490 488 491 0
-491 0
477 492 0
478 492 0
479 492 0
480 492 0
-493 0
492 -494 -495 0
494 -492 -495 0
495 -492 -494 0
494 492 495 0
-495 0
478 496 0
479 496 0
480 496 0
-478 -479 -480 -496 0
496 -497 -498 0
497 -496 -498 0
498 -496 -497 0
497 496 498 0
-498 0
496 -499 -500 0
499 -496 -500 0
500 -496 -499 0
499 496 500 0
-500 0
496 -501 -502 0
501 -496 -502 0
502 -496 -501 0
501 496 502 0
-502 0
503 504 0
505 504 0
506 504 0
507 504 0
508 504 0
-509 0
-510 504 -511 0
510 -504 -511 0
511 -504 -510 0
510 504 511 0
-511 0
505 512 0
506 512 0
507 512 0
508 512 0
-513 0
512 -514 -515 0
514 -512 -515 0
515 -512 -514 0
514 512 515 0
-515 0
506 516 0
507 516 0
508 516 0
-506 -507 -508 -516 0
516 -517 -518 0
517 -516 -518 0
518 -516 -517 0
517 516 518 0
-518 0
516 -519 -520 0
519 -516 -520 0
520 -516 -519 0
519 516 520 0
-520 0
516 -521 -522 0
521 -516 -522 0
522 -516 -521 0
521 516 522 0
-522 0
1 0
3 0
5 0
7 0
9 0
11 0
13 0
15 0
17 0
19 0
21 0
23 0
25 0
27 0
29 0
31 0
33 0
35 0
37 0
39 0
41 0
43 0
45 0
47 0
49 0
-55 0
-65 0
-77 0
-92 0
-112 0
-144 0
-169 0
-192 0
-204 0
-230 0
-239 0
-249 0
-273 0
-296 0
-317 0
-338 0
-362 0
-377 0
-406 0
-426 0
-436 0
-453 0
-463 0
-482 0
-510 0
2 -4 0
4 -2 0
2 -6 0
6 -2 0
2 -8 0
8 -2 0
2 -10 0
10 -2 0
2 -12 0
12 -2 0
2 -14 0
14 -2 0
2 -16 0
16 -2 0
2 -18 0
18 -2 0
2 -20 0
20 -2 0
2 -22 0
22 -2 0
2 -24 0
24 -2 0
2 -26 0
26 -2 0
2 -28 0
28 -2 0
2 -30 0
30 -2 0
2 -32 0
32 -2 0
2 -34 0
34 -2 0
2 -36 0
36 -2 0
2 -38 0
38 -2 0
2 -40 0
40 -2 0
2 -42 0
42 -2 0
2 -44 0
44 -2 0
2 -46 0
46 -2 0
2 -48 0
48 -2 0
2 -50 0
50 -2 0
2 -54 0
54 -2 0
2 -361 0
361 -2 0
4 -6 0
6 -4 0
4 -8 0
8 -4 0
4 -10 0
10 -4 0
4 -12 0
12 -4 0
4 -14 0
14 -4 0
4 -16 0
16 -4 0
4 -18 0
18 -4 0
4 -20 0
20 -4 0
4 -22 0
22 -4 0
4 -24 0
24 -4 0
4 -26 0
26 -4 0
4 -28 0
28 -4 0
4 -30 0
30 -4 0
4 -32 0
32 -4 0
4 -34 0
34 -4 0
4 -36 0
36 -4 0
4 -38 0
38 -4 0
4 -40 0
40 -4 0
4 -42 0
42 -4 0
4 -44 0
44 -4 0
4 -46 0
46 -4 0
4 -48 0
48 -4 0
4 -50 0
50 -4 0
4 -54 0
54 -4 0
4 -361 0
361 -4 0
6 -8 0
8 -6 0
6 -10 0
10 -6 0
6 -12 0
12 -6 0
6 -14 0
14 -6 0
6 -16 0
16 -6 0
6 -18 0
18 -6 0
6 -20 0
20 -6 0
6 -22 0
22 -6 0
6 -24 0
24 -6 0
6 -26 0
26 -6 0
6 -28 0
28 -6 0
6 -30 0
30 -6 0
6 -32 0
32 -6 0
6 -34 0
34 -6 0
6 -36 0
36 -6 0
6 -38 0
38 -6 0
6 -40 0
40 -6 0
6 -42 0
42 -6 0
6 -44 0
44 -6 0
6 -46 0
46 -6 0
6 -48 0
48 -6 0
6 -50 0
50 -6 0
6 -54 0
54 -6 0
6 -361 0
361 -6 0
8 -10 0
10 -8 0
8 -12 0
12 -8 0
8 -14 0
14 -8 0
8 -16 0
16 -8 0
8 -18 0
18 -8 0
8 -20 0
20 -8 0
8 -22 0
22 -8 0
8 -24 0
24 -8 0
8 -26 0
26 -8 0
8 -28 0
28 -8 0
8 -30 0
30 -8 0
8 -32 0
32 -8 0
8 -34 0
34 -8 0
8 -36 0
36 -8 0
8 -38 0
38 -8 0
8 -40 0
40 -8 0
8 -42 0
42 -8 0
8 -44 0
44 -8 0
8 -46 0
46 -8 0
8 -48 0
48 -8 0
8 -50 0
50 -8 0
8 -54 0
54 -8 0
8 -361 0
361 -8 0
10 -12 0
12 -10 0
10 -14 0
14 -10 0
10 -16 0
16 -10 0
10 -18 0
18 -10 0
10 -20 0
20 -10 0
10 -22 0
22 -10 0
10 -24 0
24 -10 0
10 -26 0
26 -10 0
10 -28 0
28 -10 0
10 -30 0
30 -10 0
10 -32 0
32 -10 0
10 -34 0
34 -10 0
10 -36 0
36 -10 0
10 -38 0
38 -10 0
10 -40 0
40 -10 0
10 -42 0
42 -10 0
10 -44 0
44 -10 0
10 -46 0
46 -10 0
10 -48 0
48 -10 0
10 -50 0
50 -10 0
10 -54 0
54 -10 0
10 -361 0
361 -10 0
12 -14 0
14 -12 0
12 -16 0
16 -12 0
12 -18 0
18 -12 0
12 -20 0
20 -12 0
12 -22 0
22 -12 0
12 -24 0
24 -12 0
12 -26 0
26 -12 0
12 -28 0
28 -12 0
12 -30 0
30 -12 0
12 -32 0
32 -12 0
12 -34 0
34 -12 0
12 -36 0
36 -12 0
12 -38 0
38 -12 0
12 -40 0
40 -12 0
12 -42 0
42 -12 0
12 -44 0
44 -12 0
12 -46 0
46 -12 0
12 -48 0
48 -12 0
12 -50 0
50 -12 0
12 -54 0
54 -12 0
12 -361 0
361 -12 0
14 -16 0
16 -14 0
14 -18 0
18 -14 0
14 -20 0
20 -14 0
14 -22 0
22 -14 0
14 -24 0
24 -14 0
14 -26 0
26 -14 0
14 -28 0
28 -14 0
14 -30 0
30 -14 0
14 -32 0
32 -14 0
14 -34 0
34 -14 0
14 -36 0
36 -14 0
14 -38 0
38 -14 0
14 -40 0
40 -14 0
14 -42 0
42 -14 0
14 -44 0
44 -14 0
14 -46 0
46 -14 0
14 -48 0
48 -14 0
14 -50 0
50 -14 0
14 -54 0
54 -14 0
14 -361 0
361 -14 0
16 -18 0
18 -16 0
16 -20 0
20 -16 0
16 -22 0
22 -16 0
16 -24 0
24 -16 0
16 -26 0
26 -16 0
16 -28 0
28 -16 0
16 -30 0
30 -16 0
16 -32 0
32 -16 0
16 -34 0
34 -16 0
16 -36 0
36 -16 0
16 -38 0
38 -16 0
16 -40 0
40 -16 0
16 -42 0
42 -16 0
16 -44 0
44 -16 0
16 -46 0
46 -16 0
16 -48 0
48 -16 0
16 -50 0
50 -16 0
16 -54 0
54 -16 0
16 -361 0
361 -16 0
18 -20 0
20 -18 0
18 -22 0
22 -18 0
18 -24 0
24 -18 0
18 -26 0
26 -18 0
18 -28 0
28 -18 0
18 -30 0
30 -18 0
18 -32 0
32 -18 0
18 -34 0
34 -18 0
18 -36 0
36 -18 0
18 -38 0
38 -18 0
18 -40 0
40 -18 0
18 -42 0
42 -18 0
18 -44 0
44 -18 0
18 -46 0
46 -18 0
18 -48 0
48 -18 0
18 -50 0
50 -18 0
18 -54 0
54 -18 0
18 -361 0
361 -18 0
20 -22 0
22 -20 0
20 -24 0
24 -20 0
20 -26 0
26 -20 0
20 -28 0
28 -20 0
20 -30 0
30 -20 0
20 -32 0
32 -20 0
20 -34 0
34 -20 0
20 -36 0
36 -20 0
20 -38 0
38 -20 0
20 -40 0
40 -20 0
20 -42 0
42 -20 0
20 -44 0
44 -20 0
20 -46 0
46 -20 0
20 -48 0
48 -20 0
20 -50 0
50 -20 0
20 -54 0
54 -20 0
20 -361 0
361 -20 0
22 -24 0
24 -22 0
22 -26 0
26 -22 0
22 -28 0
28 -22 0
22 -30 0
30 -22 0
22 -32 0
32 -22 0
22 -34 0
34 -22 0
22 -36 0
36 -22 0
22 -38 0
38 -22 0
22 -40 0
40 -22 0
22 -42 0
42 -22 0
22 -44 0
44 -22 0
22 -46 0
46 -22 0
22 -48 0
48 -22 0
22 -50 0
50 -22 0
22 -54 0
54 -22 0
22 -361 0
361 -22 0
24 -26 0
26 -24 0
24 -28 0
28 -24 0
24 -30 0
30 -24 0
24 -32 0
32 -24 0
24 -34 0
34 -24 0
24 -36 0
36 -24 0
24 -38 0
38 -24 0
24 -40 0
40 -24 0
24 -42 0
42 -24 0
24 -44 0
44 -24 0
24 -46 0
46 -24 0
24 -48 0
48 -24 0
24 -50 0
50 -24 0
24 -54 0
54 -24 0
24 -361 0
361 -24 0
26 -28 0
28 -26 0
26 -30 0
30 -26 0
26 -32 0
32 -26 0
26 -34 0
34 -26 0
26 -36 0
36 -26 0
26 -38 0
38 -26 0
26 -40 0
40 -26 0
26 -42 0
42 -26 0
26 -44 0
44 -26 0
26 -46 0
46 -26 0
26 -48 0
48 -26 0
26 -50 0
50 -26 0
26 -54 0
54 -26 0
26 -361 0
361 -26 0
28 -30 0
30 -28 0
28 -32 0
32 -28 0
28 -34 0
34 -28 0
28 -36 0
36 -28 0
28 -38 0
38 -28 0
28 -40 0
40 -28 0
28 -42 0
42 -28 0
28 -44 0
44 -28 0
28 -46 0
46 -28 0
28 -48 0
48 -28 0
28 -50 0
50 -28 0
28 -54 0
54 -28 0
28 -361 0
361 -28 0
30 -32 0
32 -30 0
30 -34 0
34 -30 0
30 -36 0
36 -30 0
30 -38 0
38 -30 0
30 -40 0
40 -30 0
30 -42 0
42 -30 0
30 -44 0
44 -30 0
30 -46 0
46 -30 0
30 -48 0
48 -30 0
30 -50 0
50 -30 0
30 -54 0
54 -30 0
30 -361 0
361 -30 0
32 -34 0
34 -32 0
32 -36 0
36 -32 0
32 -38 0
38 -32 0
32 -40 0
40 -32 0
32 -42 0
42 -32 0
32 -44 0
44 -32 0
32 -46 0
46 -32 0
32 -48 0
48 -32 0
32 -50 0
50 -32 0
32 -54 0
54 -32 0
32 -361 0
361 -32 0
34 -36 0
36 -34 0
34 -38 0
38 -34 0
34 -40 0
40 -34 0
34 -42 0
42 -34 0
34 -44 0
44 -34 0
34 -46 0
46 -34 0
34 -48 0
48 -34 0
34 -50 0
50 -34 0
34 -54 0
54 -34 0
34 -361 0
361 -34 0
36 -38 0
38 -36 0
36 -40 0
40 -36 0
36 -42 0
42 -36 0
36 -44 0
44 -36 0
36 -46 0
46 -36 0
36 -48 0
48 -36 0
36 -50 0
50 -36 0
36 -54 0
54 -36 0
36 -361 0
361 -36 0
38 -40 0
40 -38 0
38 -42 0
42 -38 0
38 -44 0
44 -38 0
38 -46 0
46 -38 0
38 -48 0
48 -38 0
38 -50 0
50 -38 0
38 -54 0
54 -38 0
38 -361 0
361 -38 0
40 -42 0
42 -40 0
40 -44 0
44 -40 0
40 -46 0
46 -40 0
40 -48 0
48 -40 0
40 -50 0
50 -40 0
40 -54 0
54 -40 0
40 -361 0
361 -40 0
42 -44 0
44 -42 0
42 -46 0
46 -42 0
42 -48 0
48 -42 0
42 -50 0
50 -42 0
42 -54 0
54 -42 0
42 -361 0
361 -42 0
44 -46 0
46 -44 0
44 -48 0
48 -44 0
44 -50 0
50 -44 0
44 -54 0
54 -44 0
44 -361 0
361 -44 0
46 -48 0
48 -46 0
46 -50 0
50 -46 0
46 -54 0
54 -46 0
46 -361 0
361 -46 0
48 -50 0
50 -48 0
48 -54 0
54 -48 0
48 -361 0
361 -48 0
50 -54 0
54 -50 0
50 -361 0
361 -50 0
51 -358 0
358 -51 0
53 -360 0
360 -53 0
54 -361 0
361 -54 0
61 -74 0
74 -61 0
63 -75 0
75 -63 0
64 -73 0
73 -64 0
61 -374 0
374 -61 0
63 -375 0
375 -63 0
64 -373 0
373 -64 0
61 -403 0
403 -61 0
63 -404 0
404 -63 0
64 -402 0
402 -64 0
71 -372 0
372 -71 0
73 -373 0
373 -73 0
74 -374 0
374 -74 0
75 -375 0
375 -75 0
71 -401 0
401 -71 0
73 -402 0
402 -73 0
74 -403 0
403 -74 0
75 -404 0
404 -75 0
86 -291 0
291 -86 0
88 -292 0
292 -88 0
89 -293 0
293 -89 0
90 -294 0
294 -90 0
86 -431 0
431 -86 0
88 -432 0
432 -88 0
89 -433 0
433 -89 0
90 -434 0
434 -90 0
89 -450 0
450 -89 0
90 -452 0
452 -90 0
88 -459 0
459 -88 0
89 -460 0
460 -89 0
90 -461 0
461 -90 0
107 -142 0
142 -107 0
108 -139 0
139 -108 0
109 -140 0
140 -109 0
110 -141 0
141 -110 0
107 -202 0
202 -107 0
108 -199 0
199 -108 0
109 -200 0
200 -109 0
110 -201 0
201 -110 0
107 -314 0
314 -107 0
108 -315 0
315 -108 0
109 -312 0
312 -109 0
110 -313 0
313 -110 0
107 -336 0
336 -107 0
108 -333 0
333 -108 0
109 -334 0
334 -109 0
110 -335 0
335 -110 0
136 -197 0
197 -136 0
138 -198 0
198 -138 0
139 -199 0
199 -139 0
140 -200 0
200 -140 0
141 -201 0
201 -141 0
142 -202 0
202 -142 0
139 -315 0
315 -139 0
140 -312 0
312 -140 0
141 -313 0
313 -141 0
142 -314 0
314 -142 0
138 -332 0
332 -138 0
139 -333 0
333 -139 0
140 -334 0
334 -140 0
141 -335 0
335 -141 0
142 -336 0
336 -142 0
164 -247 0
247 -164 0
165 -244 0
244 -165 0
166 -245 0
245 -166 0
167 -246 0
246 -167 0
164 -271 0
271 -164 0
165 -268 0
268 -165 0
166 -269 0
269 -166 0
167 -270 0
270 -167 0
189 -227 0
227 -189 0
191 -228 0
228 -191 0
191 -240 0
240 -191 0
189 -423 0
423 -189 0
191 -425 0
425 -191 0
199 -315 0
315 -199 0
200 -312 0
312 -200 0
201 -313 0
313 -201 0
202 -314 0
314 -202 0
198 -332 0
332 -198 0
199 -333 0
333 -199 0
200 -334 0
334 -200 0
201 -335 0
335 -201 0
202 -336 0
336 -202 0
228 -240 0
240 -228 0
227 -423 0
423 -227 0
228 -425 0
425 -228 0
240 -425 0
425 -240 0
241 -265 0
265 -241 0
243 -267 0
267 -243 0
244 -268 0
268 -244 0
245 -269 0
269 -245 0
246 -270 0
270 -246 0
247 -271 0
271 -247 0
289 -429 0
429 -289 0
291 -431 0
431 -291 0
292 -432 0
432 -292 0
293 -433 0
433 -293 0
294 -434 0
434 -294 0
293 -450 0
450 -293 0
294 -452 0
452 -294 0
292 -459 0
459 -292 0
293 -460 0
460 -293 0
294 -461 0
461 -294 0
312 -334 0
334 -312 0
313 -335 0
335 -313 0
314 -336 0
336 -314 0
315 -333 0
333 -315 0
370 -398 0
398 -370 0
371 -400 0
400 -371 0
372 -401 0
401 -372 0
373 -402 0
402 -373 0
374 -403 0
403 -374 0
375 -404 0
404 -375 0
433 -450 0
450 -433 0
434 -452 0
452 -434 0
432 -459 0
459 -432 0
433 -460 0
460 -433 0
434 -461 0
461 -434 0
450 -460 0
460 -450 0
452 -461 0
461 -452 0
478 -508 0
508 -478 0
479 -506 0
506 -479 0
480 -507 0
507 -480 0
